(set-logic QF_UF)
(declare-const q Bool)
(declare-const p Bool)
(assert (not (and q (xor (not (or p (not p))) p))))
(declare-const t Bool)
(assert (= t q))
(assert (=> t (not q)))
(ite p q t)
(check-sat)
(exit)
